(set-logic HORN)
(declare-datatypes ((Nat_0 0)) (((Z_2 ) (Z_3 (unS_0 Nat_0)))))
(declare-fun le_0 (Nat_0 Nat_0) Bool)
(declare-fun gt_0 (Nat_0 Nat_0) Bool)
(declare-datatypes ((Bool_0 0)) (((false_0 ) (true_0 ))))
(declare-fun diseqBool_0 (Bool_0 Bool_0) Bool)
(declare-datatypes ((list_0 0)) (((nil_0 ) (cons_0 (head_0 Nat_0) (tail_0 list_0)))))
(declare-datatypes ((pair_0 0)) (((pair_1 (projpair_0 Bool_0) (projpair_1 list_0)))))
(declare-fun ordered_0 (Bool_0 list_0) Bool)
(declare-fun bubble_0 (pair_0 list_0) Bool)
(declare-fun bubsort_0 (list_0 list_0) Bool)
(assert (forall ((y_4 Nat_0))
	(le_0 Z_2 y_4)))
(assert (forall ((x_21 Nat_0) (y_4 Nat_0))
	(=> (le_0 x_21 y_4) (le_0 (Z_3 x_21) (Z_3 y_4)))))
(assert (forall ((y_4 Nat_0))
	(gt_0 (Z_3 y_4) Z_2)))
(assert (forall ((x_21 Nat_0) (y_4 Nat_0))
	(=> (gt_0 x_21 y_4) (gt_0 (Z_3 x_21) (Z_3 y_4)))))
(assert (diseqBool_0 false_0 true_0))
(assert (diseqBool_0 true_0 false_0))
(assert (forall ((x_3 Bool_0) (y_1 Nat_0) (xs_0 list_0) (y_0 Nat_0))
	(=> (and (le_0 y_0 y_1) (ordered_0 x_3 (cons_0 y_1 xs_0))) (ordered_0 x_3 (cons_0 y_0 (cons_0 y_1 xs_0))))))
(assert (forall ((y_1 Nat_0) (xs_0 list_0) (y_0 Nat_0))
	(=> (gt_0 y_0 y_1) (ordered_0 false_0 (cons_0 y_0 (cons_0 y_1 xs_0))))))
(assert (forall ((y_0 Nat_0))
	(ordered_0 true_0 (cons_0 y_0 nil_0))))
(assert (ordered_0 true_0 nil_0))
(assert (forall ((b_0 Bool_0) (ys_0 list_0) (y_3 Nat_0) (xs_1 list_0) (y_2 Nat_0))
	(=> (and (le_0 y_2 y_3) (bubble_0 (pair_1 b_0 ys_0) (cons_0 y_3 xs_1))) (bubble_0 (pair_1 b_0 (cons_0 y_2 ys_0)) (cons_0 y_2 (cons_0 y_3 xs_1))))))
(assert (forall ((b_1 Bool_0) (ys_1 list_0) (y_3 Nat_0) (xs_1 list_0) (y_2 Nat_0))
	(=> (and (gt_0 y_2 y_3) (bubble_0 (pair_1 b_1 ys_1) (cons_0 y_2 xs_1))) (bubble_0 (pair_1 true_0 (cons_0 y_3 ys_1)) (cons_0 y_2 (cons_0 y_3 xs_1))))))
(assert (forall ((y_2 Nat_0))
	(bubble_0 (pair_1 false_0 (cons_0 y_2 nil_0)) (cons_0 y_2 nil_0))))
(assert (bubble_0 (pair_1 false_0 nil_0) nil_0))
(assert (forall ((x_15 list_0) (ys_2 list_0) (x_2 list_0))
	(=> (and (bubsort_0 x_15 ys_2) (bubble_0 (pair_1 true_0 ys_2) x_2)) (bubsort_0 x_15 x_2))))
(assert (forall ((x_18 list_0) (c_0 Bool_0) (ys_2 list_0))
	(=> (and (diseqBool_0 c_0 true_0) (bubble_0 (pair_1 c_0 ys_2) x_18)) (bubsort_0 x_18 x_18))))
(assert (forall ((x_19 list_0) (x_20 Bool_0) (xs_2 list_0))
	(=> (and (diseqBool_0 x_20 true_0) (bubsort_0 x_19 xs_2) (ordered_0 x_20 x_19)) false)))
(check-sat)
(get-model)
